letting n =  10
letting blocks =  [[1, 4], [1, 6], [3, 1], [3, 2], [4, 5], [4, 9], [5, 2], [5, 3], [5, 4], [5, 5], [5, 8], [6, 4], [7, 2], [7, 4], [8, 2], [8, 3], [8, 4], [8, 7], [9, 1], [9, 3], [9, 9], [10, 3], [10, 4], [10, 5]]
